HUN,8,6,611
5,29,3,23,1,10,2,11,4,2,0,14
3,22,5,5,1,11,2,23,0,3,4,21
1,13,3,14,0,22,5,21,4,6,2,28
0,24,5,13,2,3,4,19,1,11,3,28
4,13,5,5,2,2,1,14,0,28,3,8
4,26,5,23,0,26,2,13,3,27,1,6
1,4,0,26,3,21,2,5,5,9,4,19
4,17,5,19,1,11,3,16,0,18,2,5
